<number of tasks>
50

<cycle time>
1000

<order strength>
0.596


<task times>
1 329
2 160
3 140
4 134
5 431
6 494
7 21
8 523
9 153
10 466
11 140
12 148
13 109
14 94
15 56
16 141
17 271
18 248
19 27
20 242
21 258
22 247
23 61
24 178
25 225
26 52
27 388
28 183
29 86
30 76
31 430
32 196
33 317
34 505
35 229
36 220
37 197
38 101
39 255
40 481
41 142
42 146
43 82
44 63
45 270
46 540
47 90
48 552
49 491
50 142

<precedence relations>
1,16
1,26
2,23
3,6
4,8
4,28
5,7
6,9
6,10
6,11
6,12
7,9
7,12
7,19
8,14
9,13
9,15
9,17
9,18
10,13
10,14
10,16
10,17
10,18
10,23
11,18
11,30
11,32
12,24
12,25
12,30
13,20
13,21
14,19
15,23
15,28
15,30
16,19
16,31
17,22
17,31
17,32
18,31
18,43
19,27
19,36
20,25
20,35
21,24
21,27
22,24
22,42
23,25
23,26
23,35
24,28
24,41
25,29
25,31
25,32
26,33
26,34
26,41
26,42
27,29
27,30
27,32
28,33
28,34
28,35
29,34
29,37
30,33
30,37
31,33
31,36
31,49
32,42
32,50
33,39
37,38
38,39
38,40
38,41
38,42
38,43
38,44
39,48
40,45
40,47
42,46
43,49
43,50
44,46
44,47

<end>
